This is Ipopt version 3.10.0, running with linear solver ma27.

Number of nonzeros in equality constraint Jacobian...:        0
Number of nonzeros in inequality constraint Jacobian.:       48
Number of nonzeros in Lagrangian Hessian.............:        0

Total number of variables............................:        6
                     variables with only lower bounds:        0
                variables with lower and upper bounds:        6
                     variables with only upper bounds:        0
Total number of equality constraints.................:        0
Total number of inequality constraints...............:        8
        inequality constraints with only lower bounds:        0
   inequality constraints with lower and upper bounds:        0
        inequality constraints with only upper bounds:        8

iter    objective    inf_pr   inf_du lg(mu)  ||d||  lg(rg) alpha_du alpha_pr  ls
   0  7.6568542e+00 2.28e+00 1.44e+00   0.0 0.00e+00    -  0.00e+00 0.00e+00   0
   1  9.7818516e+00 7.06e-01 4.64e+00  -0.7 2.48e+00    -  6.44e-01 1.00e+00h  1
   2  9.8549158e+00 6.45e-01 4.20e+00  -0.6 6.13e-01    -  8.66e-01 3.45e-01h  1
   3  1.1724264e+01 4.60e-01 5.56e+00   1.4 1.91e+01    -  5.58e-02 3.11e-02f  1
   4  1.1652320e+01 4.60e-01 3.87e+00  -0.4 5.50e-01    -  1.00e+00 2.15e-01h  1
   5  1.2930554e+01 2.11e-01 2.66e+00  -0.1 1.54e+00    -  5.90e-01 6.56e-01h  1
   6  1.3530389e+01 1.62e-01 2.34e+00  -0.9 3.21e-01    -  7.74e-01 6.34e-01h  1
   7  1.4996332e+01 4.35e-02 5.50e+00  -1.1 1.05e+00    -  9.90e-01 8.86e-01h  1
   8  1.4855608e+01 3.91e-02 5.81e+00  -1.7 4.65e-01    -  1.00e+00 6.79e-01h  1
   9  1.5495156e+01 0.00e+00 5.33e+00  -1.0 9.86e-01    -  1.00e+00 1.00e+00h  1
iter    objective    inf_pr   inf_du lg(mu)  ||d||  lg(rg) alpha_du alpha_pr  ls
  10  1.5174783e+01 8.08e-03 3.13e+00  -1.3 3.52e-01    -  1.00e+00 1.00e+00f  1
  11  1.5131431e+01 6.31e-03 3.66e+00  -2.5 1.21e-01    -  1.00e+00 9.12e-01h  1
  12  1.5223238e+01 2.09e-03 3.20e+00  -2.8 1.60e-01    -  1.00e+00 9.43e-01H  1
  13  1.5183210e+01 7.40e-03 2.58e+00  -3.8 1.13e-01    -  1.00e+00 1.00e+00h  1
  14  1.5083490e+01 1.68e-02 2.14e+00  -3.9 5.67e-01    -  1.00e+00 3.15e-01f  1
  15  1.5292622e+01 3.21e-04 8.28e-01  -4.2 2.24e-01    -  1.00e+00 9.82e-01h  1
  16  1.5269553e+01 1.26e-03 1.87e-01  -4.9 6.16e-02    -  1.00e+00 9.68e-01h  1
  17  1.5232444e+01 5.27e-04 1.66e-02  -5.0 9.35e-03    -  1.00e+00 1.00e+00h  1
  18  1.5215499e+01 5.44e-05 3.52e-03  -6.5 1.11e-02    -  1.00e+00 1.00e+00h  1
  19  1.5213617e+01 9.11e-06 1.08e-04  -8.6 1.01e-03    -  1.00e+00 1.00e+00h  1
iter    objective    inf_pr   inf_du lg(mu)  ||d||  lg(rg) alpha_du alpha_pr  ls
  20  1.5213301e+01 2.63e-07 4.23e-05 -11.0 2.57e-04    -  1.00e+00 1.00e+00h  1

Number of Iterations....: 20

                                   (scaled)                 (unscaled)
Objective...............:   1.5213300518468746e+01    1.5213300518468746e+01
Dual infeasibility......:   4.2338218251281035e-05    4.2338218251281035e-05
Constraint violation....:   2.6256185286539391e-07    2.6256185286539391e-07
Complementarity.........:   1.0599389997330487e-11    1.0599389997330487e-11
Overall NLP error.......:   4.2338218251281035e-05    4.2338218251281035e-05


Number of objective function evaluations             = 22
Number of objective gradient evaluations             = 21
Number of equality constraint evaluations            = 0
Number of inequality constraint evaluations          = 22
Number of equality constraint Jacobian evaluations   = 0
Number of inequality constraint Jacobian evaluations = 21
Number of Lagrangian Hessian evaluations             = 0
Total CPU secs in IPOPT (w/o function evaluations)   =      0.025
Total CPU secs in NLP function evaluations           =      0.001

EXIT: Stopping optimization at current point as requested by user.
